
******************************************************************************
This program contains Ipopt, a library for large-scale nonlinear optimization.
 Ipopt is released as open source code under the Eclipse Public License (EPL).
         For more information visit https://github.com/coin-or/Ipopt
******************************************************************************

This is Ipopt version 3.14.16, running with linear solver MUMPS 5.7.3.

Number of nonzeros in equality constraint Jacobian...:        0
Number of nonzeros in inequality constraint Jacobian.:       10
Number of nonzeros in Lagrangian Hessian.............:        0

Total number of variables............................:       10
                     variables with only lower bounds:        0
                variables with lower and upper bounds:       10
                     variables with only upper bounds:        0
Total number of equality constraints.................:        0
Total number of inequality constraints...............:        1
        inequality constraints with only lower bounds:        1
   inequality constraints with lower and upper bounds:        0
        inequality constraints with only upper bounds:        0

iter    objective    inf_pr   inf_du lg(mu)  ||d||  lg(rg) alpha_du alpha_pr  ls
   0  5.8178078e-04 1.49e+00 3.90e-01   0.0 0.00e+00    -  0.00e+00 0.00e+00   0
   1  2.9968468e-02 3.94e-02 9.90e+00  -0.1 1.23e+00    -  1.76e-01 1.00e+00f  1
   2  3.8456650e-02 0.00e+00 3.16e-01  -0.6 3.61e-01    -  9.99e-01 1.00e+00h  1
   3  3.9479381e-02 0.00e+00 6.29e-03  -2.1 4.95e-02    -  9.98e-01 1.00e+00h  1
   4  3.7034184e-02 0.00e+00 2.98e-03  -3.0 1.14e-01    -  9.82e-01 1.00e+00h  1
   5  2.3706614e-02 1.64e-01 1.95e-02  -3.6 7.41e-01    -  1.00e+00 8.55e-01h  1
   6  2.2581892e-02 1.94e-01 4.00e-03  -3.7 4.19e-01    -  9.97e-01 1.00e+00h  1
   7  2.7267197e-02 2.09e-02 3.06e-03  -4.2 2.52e-01    -  9.96e-01 1.00e+00h  1
   8  2.6656465e-02 0.00e+00 1.93e-03  -4.8 4.43e-01    -  1.00e+00 1.00e+00h  1
   9  2.3153009e-02 1.56e-01 8.37e-03  -3.0 1.23e+00    -  1.00e+00 4.24e-01h  2
iter    objective    inf_pr   inf_du lg(mu)  ||d||  lg(rg) alpha_du alpha_pr  ls
  10  2.5080845e-02 6.11e-02 1.70e-02  -3.6 3.83e-01    -  1.00e+00 1.00e+00h  1
  11  2.4488063e-02 4.42e-02 2.53e-03  -3.0 6.75e-01    -  1.00e+00 1.00e+00h  1
  12  2.5693312e-02 0.00e+00 1.67e-03  -3.6 7.77e-01    -  1.00e+00 1.00e+00h  1
  13  2.4116625e-02 6.42e-03 1.26e-03  -4.4 2.82e-01    -  1.00e+00 1.00e+00h  1
  14  2.4332964e-02 4.55e-03 5.31e-04  -4.0 1.40e-01    -  1.00e+00 1.00e+00h  1
  15  2.4465803e-02 0.00e+00 4.03e-04  -4.0 6.31e-02    -  1.00e+00 1.00e+00h  1
  16  2.4042642e-02 5.32e-03 8.65e-04  -5.2 1.09e-01    -  9.98e-01 1.00e+00h  1
  17  2.4043721e-02 1.73e-03 1.25e-03  -6.0 3.63e-02    -  1.00e+00 1.00e+00h  1
  18  2.3944116e-02 3.33e-03 2.24e-03  -6.5 1.02e-01    -  1.00e+00 1.00e+00h  1
  19  2.4018999e-02 4.08e-04 5.01e-04  -6.6 3.81e-02    -  1.00e+00 1.00e+00h  1
iter    objective    inf_pr   inf_du lg(mu)  ||d||  lg(rg) alpha_du alpha_pr  ls
  20  2.3863324e-02 1.10e-02 5.55e-03  -7.4 2.60e-01    -  1.00e+00 1.00e+00h  1
  21  2.3674341e-02 1.22e-02 9.35e-04  -7.2 1.96e-01    -  1.00e+00 1.00e+00h  1
  22  2.4003435e-02 4.19e-04 1.31e-03  -7.9 2.99e-02    -  1.00e+00 1.00e+00h  1
  23  2.4010630e-02 1.72e-04 6.58e-04 -10.0 1.20e-02    -  1.00e+00 1.00e+00h  1
  24  2.4013604e-02 3.01e-05 6.93e-04 -11.0 4.86e-03    -  1.00e+00 1.00e+00h  1
  25  2.4011284e-02 2.49e-04 9.92e-04 -11.0 1.91e-02    -  1.00e+00 1.00e+00h  1
  26  2.4012642e-02 4.08e-05 9.11e-04 -11.0 1.24e-02    -  1.00e+00 1.00e+00h  1
  27  2.3950432e-02 3.96e-03 5.16e-04 -11.0 1.23e-01    -  1.00e+00 1.00e+00h  1
  28  2.3999448e-02 9.26e-04 6.48e-04 -11.0 6.69e-02    -  1.00e+00 1.00e+00h  1
  29  2.3927596e-02 4.74e-03 1.76e-03 -11.0 1.65e-01    -  1.00e+00 1.00e+00h  1
iter    objective    inf_pr   inf_du lg(mu)  ||d||  lg(rg) alpha_du alpha_pr  ls
  30  2.3823243e-02 6.74e-03 4.46e-04 -11.0 1.15e-01    -  1.00e+00 1.00e+00h  1
  31  2.4010526e-02 4.32e-04 1.20e-03 -11.0 2.79e-02    -  1.00e+00 1.00e+00h  1
  32  2.4015349e-02 1.63e-05 7.49e-04 -11.0 1.78e-02    -  1.00e+00 1.00e+00h  1
  33  1.8741827e-02 4.40e-01 3.37e-02  -9.0 4.34e+00    -  1.00e+00 3.57e-01h  1
  34  2.4332419e-02 3.45e-01 1.19e-01  -7.0 1.19e+00    -  7.38e-01 1.00e+00h  1
  35  1.5353151e-02 5.21e-01 6.89e-02  -5.6 3.51e+00    -  1.29e-01 2.00e-01h  1
  36  1.4980495e-02 5.19e-01 7.78e-02  -7.5 2.00e+00    -  1.91e-01 5.46e-03h  1
  37  1.2871425e-02 9.87e-01 1.04e-01  -4.1 6.16e+00    -  3.62e-01 4.82e-01f  1
  38  8.6532890e-03 1.03e+00 9.28e-02  -7.9 1.61e+01    -  1.84e-03 3.56e-02h  2
  39  2.1495277e-02 2.78e-01 2.95e-02  -3.2 1.10e+00    -  8.08e-01 1.00e+00h  1
iter    objective    inf_pr   inf_du lg(mu)  ||d||  lg(rg) alpha_du alpha_pr  ls
  40  2.8142832e-02 8.06e-02 3.10e-02  -2.8 1.30e+00    -  5.93e-01 1.00e+00h  1
  41  2.8176519e-02 0.00e+00 3.77e-02  -2.5 3.63e+00    -  7.67e-01 3.48e-01f  1
  42  4.1282029e-02 0.00e+00 3.74e-02  -2.5 1.50e+00    -  5.86e-01 1.00e+00f  1
  43  3.3941572e-02 0.00e+00 3.63e-03  -2.5 5.73e-01    -  1.00e+00 1.00e+00h  1
  44  2.7026240e-02 0.00e+00 5.50e-03  -3.8 4.56e-01    -  8.26e-01 1.00e+00h  1
  45  2.4974148e-02 1.50e-02 7.49e-03  -3.8 4.33e-01    -  8.17e-01 1.00e+00h  1
  46  2.4531669e-02 2.12e-02 3.89e-03  -3.8 2.18e-01    -  1.00e+00 1.00e+00h  1
  47  2.4733277e-02 0.00e+00 1.67e-03  -3.8 3.69e-01    -  6.88e-01 1.00e+00h  1
  48  2.4504127e-02 0.00e+00 1.09e-03  -3.8 4.56e-01    -  1.00e+00 4.03e-01h  2
  49  2.2584986e-02 8.42e-02 1.16e-02  -3.8 1.13e+00    -  1.00e+00 1.00e+00h  1
iter    objective    inf_pr   inf_du lg(mu)  ||d||  lg(rg) alpha_du alpha_pr  ls
  50  2.1289867e-02 1.15e-01 2.53e-03  -3.8 6.77e-01    -  1.00e+00 1.00e+00h  1
  51  1.8319769e-02 4.82e-01 1.07e-01  -3.5 1.67e+00    -  1.00e+00 1.00e+00h  1
  52  2.2486039e-02 2.40e-01 3.58e-02  -3.3 6.50e-01    -  1.00e+00 1.00e+00h  1
  53  2.1169667e-02 1.34e-01 1.66e-02  -3.4 3.82e-01    -  5.63e-01 1.00e+00h  1
  54  2.4054424e-02 7.23e-02 1.66e-02  -2.8 2.33e+00    -  1.00e+00 5.33e-01h  1
  55  2.6397319e-02 0.00e+00 2.06e-03  -2.9 7.71e-01    -  1.00e+00 1.00e+00h  1
  56  2.7066188e-02 0.00e+00 5.44e-03  -2.9 4.16e-01    -  1.00e+00 1.00e+00h  1
  57  2.4409437e-02 8.07e-02 2.72e-02  -4.4 6.27e-01    -  7.28e-01 1.00e+00h  1
  58  2.2752830e-02 6.38e-02 3.77e-03  -4.4 1.01e+00    -  6.15e-01 1.00e+00h  1
  59  1.4993295e-02 4.08e-01 6.51e-02  -3.4 1.26e+00    -  5.72e-01 1.00e+00h  1
iter    objective    inf_pr   inf_du lg(mu)  ||d||  lg(rg) alpha_du alpha_pr  ls
  60  2.2983875e-02 8.09e-02 3.55e-03  -3.7 4.56e-01    -  1.00e+00 1.00e+00h  1
  61  2.4363334e-02 1.51e-02 8.12e-03  -3.9 4.25e-01    -  7.09e-01 1.00e+00h  1
  62  2.7706657e-02 0.00e+00 2.20e-02  -3.9 1.31e+00    -  1.00e+00 5.55e-01H  1
  63  2.1182285e-02 1.04e-01 1.40e-02  -3.9 7.18e-01    -  2.66e-01 1.00e+00f  1
  64  2.4368433e-02 1.69e-02 2.09e-03  -3.6 6.26e-01    -  1.00e+00 1.00e+00h  1
  65  2.3974828e-02 0.00e+00 9.85e-04  -3.6 5.61e-01    -  1.00e+00 1.00e+00h  1
  66  2.3598481e-02 0.00e+00 1.73e-03  -3.6 3.49e-01    -  1.00e+00 1.00e+00h  1
  67  2.2903462e-02 0.00e+00 1.98e-03  -4.1 3.72e-01    -  9.94e-01 1.00e+00h  1
  68  2.2485709e-02 4.06e-02 6.68e-03  -3.5 1.69e+00    -  1.00e+00 3.98e-01h  2
  69  2.2279912e-02 3.76e-02 9.03e-03  -3.7 5.46e-01    -  9.94e-01 1.00e+00h  1
iter    objective    inf_pr   inf_du lg(mu)  ||d||  lg(rg) alpha_du alpha_pr  ls
  70  2.0088500e-02 3.72e-01 5.48e-02  -3.8 3.61e+00    -  3.97e-01 5.32e-01h  1
  71  2.0741046e-02 2.11e-01 1.52e-02  -3.4 1.89e+00    -  2.22e-01 1.00e+00h  1
  72  2.2838342e-02 1.28e-01 1.69e-02  -9.6 2.44e+00    -  3.48e-02 7.73e-01h  1
  73  2.4669605e-02 1.07e-02 3.16e-03  -3.8 3.37e-01    -  2.10e-01 1.00e+00h  1
  74  2.2542358e-02 8.13e-02 5.48e-03  -3.8 8.51e-01    -  1.00e+00 1.00e+00h  1
  75 -3.8828855e-03 6.01e-01 8.78e-01  -3.8 2.41e+00    -  4.51e-01 3.80e-01H  1
  76  2.3153841e-02 3.33e-01 1.24e-01  -4.0 1.19e+00    -  1.43e-01 7.47e-01h  1
  77  1.8964671e-02 3.01e-01 9.33e-02  -3.9 5.59e-01    -  1.11e-01 2.41e-01h  1
  78  2.0477167e-02 1.49e-01 3.42e-02  -4.2 7.33e-01    -  3.15e-01 5.13e-01h  1
  79  2.2289158e-02 1.58e-01 2.79e-02  -4.3 1.92e+00    -  3.37e-01 2.92e-01H  1
iter    objective    inf_pr   inf_du lg(mu)  ||d||  lg(rg) alpha_du alpha_pr  ls
  80  2.1032350e-02 9.01e-02 7.61e-03  -4.2 4.07e-01    -  1.99e-01 6.30e-01h  1
  81  2.3418691e-02 1.24e-02 2.18e-02  -4.8 1.51e-01    -  1.00e+00 1.00e+00h  1
  82  2.3271259e-02 4.37e-03 9.87e-03  -4.8 9.71e-02    -  1.00e+00 1.00e+00h  1
  83  2.2826888e-02 1.27e-02 6.78e-03  -4.8 1.34e-01    -  5.51e-01 1.00e+00h  1
  84  2.3060755e-02 6.25e-04 5.74e-03  -6.1 4.31e-02    -  1.00e+00 1.00e+00h  1
  85  2.2751237e-02 2.28e-02 2.32e-03  -4.1 8.44e-01    -  1.00e+00 8.32e-01h  1
  86  2.2176748e-02 2.82e-02 2.27e-03  -4.6 3.74e-01    -  8.02e-01 1.00e+00h  1
  87  2.2552360e-02 4.22e-04 9.19e-04  -4.6 2.93e-01    -  9.97e-01 1.00e+00h  1
  88  2.2702698e-02 0.00e+00 1.46e-03  -3.7 1.45e+00    -  6.25e-01 3.52e-01h  2
  89  2.0826381e-02 6.32e-02 1.98e-03  -4.0 9.30e-01    -  1.00e+00 1.00e+00h  1
iter    objective    inf_pr   inf_du lg(mu)  ||d||  lg(rg) alpha_du alpha_pr  ls
  90  2.1904359e-02 0.00e+00 1.40e-03  -4.3 6.10e-01    -  9.99e-01 1.00e+00h  1
  91  2.1847123e-02 0.00e+00 2.78e-03  -4.7 6.71e-01    -  9.98e-01 1.53e-01h  2
  92  2.1646024e-02 6.06e-03 1.78e-03  -4.3 1.29e-01    -  1.00e+00 1.00e+00h  1
  93  2.1535137e-02 5.53e-03 1.98e-03  -4.5 1.73e-01    -  1.00e+00 1.00e+00h  1
  94  2.1269257e-02 1.22e-02 1.29e-03  -5.5 1.22e-01    -  1.00e+00 1.00e+00h  1
  95  2.1226904e-02 1.12e-02 2.80e-03  -6.4 1.52e-01    -  1.00e+00 1.00e+00h  1
  96  2.1431517e-02 5.13e-03 2.09e-03  -6.4 9.67e-02    -  1.00e+00 1.00e+00h  1
  97  2.1427130e-02 2.44e-03 1.02e-03  -6.8 6.31e-02    -  1.00e+00 1.00e+00h  1
  98  2.1446969e-02 1.30e-03 6.03e-04  -8.3 4.70e-02    -  1.00e+00 1.00e+00h  1
  99  2.1478611e-02 3.80e-05 9.02e-05  -8.7 1.66e-02    -  1.00e+00 1.00e+00h  1
iter    objective    inf_pr   inf_du lg(mu)  ||d||  lg(rg) alpha_du alpha_pr  ls
 100  2.1477726e-02 5.76e-05 1.40e-04 -10.5 1.55e-02    -  1.00e+00 1.00e+00h  1
 101  2.1475271e-02 1.03e-04 6.50e-05 -11.0 2.99e-02    -  1.00e+00 1.00e+00h  1
 102  2.1473230e-02 1.29e-04 6.61e-05 -11.0 3.76e-02    -  1.00e+00 1.00e+00h  1
 103  2.1157191e-02 1.45e-02 8.52e-04 -11.0 2.95e-01    -  1.00e+00 1.00e+00h  1
 104  2.1137142e-02 1.26e-02 1.26e-04 -11.0 2.23e-01    -  1.00e+00 1.00e+00h  1
 105  2.1468381e-02 3.02e-04 1.81e-04 -11.0 2.47e-02    -  1.00e+00 1.00e+00h  1
 106  2.1476856e-02 1.17e-04 8.47e-04 -11.0 1.52e-02    -  1.00e+00 1.00e+00h  1
 107  2.1473131e-02 7.72e-05 1.80e-04 -11.0 2.55e-02    -  1.00e+00 1.00e+00h  1
 108  2.1472884e-02 1.15e-04 1.89e-04 -11.0 1.27e-02    -  1.00e+00 1.00e+00h  1
 109  2.1474005e-02 3.62e-05 2.26e-05 -11.0 8.07e-03    -  1.00e+00 1.00e+00h  1
iter    objective    inf_pr   inf_du lg(mu)  ||d||  lg(rg) alpha_du alpha_pr  ls
 110  2.1474936e-02 1.17e-06 1.68e-05 -11.0 1.66e-03    -  1.00e+00 1.00e+00h  1
 111  2.1474911e-02 1.74e-06 5.65e-06 -11.0 1.73e-03    -  1.00e+00 1.00e+00h  1
 112  2.1474942e-02 3.52e-07 8.16e-06 -11.0 1.86e-03    -  1.00e+00 1.00e+00h  1
 113  2.1471052e-02 1.55e-04 8.79e-05 -11.0 3.82e-02    -  1.00e+00 1.00e+00h  1
 114  2.1467197e-02 7.89e-04 1.46e-03 -11.0 6.47e-02    -  1.00e+00 1.00e+00h  1
 115  2.1459131e-02 5.85e-04 3.95e-05 -11.0 7.06e-02    -  1.00e+00 1.00e+00h  1
 116  2.1474370e-02 2.06e-05 1.93e-05 -11.0 1.39e-02    -  1.00e+00 1.00e+00h  1
 117  2.1473279e-02 1.48e-04 3.10e-04 -11.0 2.12e-02    -  1.00e+00 1.00e+00h  1
 118  2.1470436e-02 1.66e-04 2.39e-06 -11.0 2.35e-02    -  1.00e+00 1.00e+00h  1
 119  2.1474915e-02 4.50e-07 6.14e-06 -11.0 1.40e-03    -  1.00e+00 1.00e+00h  1
iter    objective    inf_pr   inf_du lg(mu)  ||d||  lg(rg) alpha_du alpha_pr  ls
 120  2.1474917e-02 3.09e-07 1.84e-06 -11.0 5.00e-04    -  1.00e+00 1.00e+00h  1
 121  2.1474924e-02 3.25e-08 5.41e-07 -11.0 4.35e-04    -  1.00e+00 1.00e+00h  1
 122  2.1474925e-02 2.11e-08 6.48e-06 -11.0 4.07e-04    -  1.00e+00 1.00e+00h  1
 123  2.1474920e-02 2.37e-07 3.43e-06 -11.0 1.37e-03    -  1.00e+00 1.00e+00h  1
 124  2.1474884e-02 1.80e-06 2.01e-05 -11.0 3.55e-03    -  1.00e+00 1.00e+00h  1
 125  2.1474916e-02 3.75e-07 6.11e-06 -11.0 1.44e-03    -  1.00e+00 1.00e+00h  1
 126  2.1474964e-02 0.00e+00 4.25e-05 -11.0 1.32e-03    -  1.00e+00 1.00e+00H  1
 127  2.1474898e-02 9.99e-07 9.34e-07 -11.0 1.17e-03    -  1.00e+00 1.00e+00h  1
 128  2.1474925e-02 3.29e-09 6.82e-07 -11.0 1.60e-04    -  1.00e+00 1.00e+00h  1
 129  2.1474908e-02 8.51e-07 1.01e-05 -11.0 1.01e-03    -  1.00e+00 1.00e+00h  1
iter    objective    inf_pr   inf_du lg(mu)  ||d||  lg(rg) alpha_du alpha_pr  ls
 130  2.1474903e-02 8.35e-07 1.68e-06 -11.0 1.02e-03    -  1.00e+00 1.00e+00h  1
 131  2.1474921e-02 2.92e-07 1.65e-05 -11.0 9.09e-04    -  1.00e+00 1.00e+00h  1
 132  2.1474920e-02 2.04e-07 2.72e-08 -11.0 7.31e-04    -  1.00e+00 1.00e+00h  1
 133  2.1474925e-02 0.00e+00 8.92e-08 -11.0 2.76e-05    -  1.00e+00 1.00e+00h  1
 134  2.1474925e-02 2.21e-09 9.31e-07 -11.0 1.75e-04    -  1.00e+00 1.00e+00h  1
 135  2.1474925e-02 4.87e-10 5.47e-07 -11.0 7.92e-05    -  1.00e+00 1.00e+00h  1
 136  2.1474925e-02 7.63e-09 1.84e-06 -11.0 1.75e-04    -  1.00e+00 1.00e+00h  1
 137  2.1474925e-02 7.38e-09 4.27e-08 -11.0 2.09e-04    -  1.00e+00 1.00e+00h  1
 138  2.1474925e-02 2.36e-08 2.70e-07 -11.0 4.64e-04    -  1.00e+00 1.00e+00h  1
 139  2.1474919e-02 6.17e-07 1.94e-05 -11.0 2.51e-03    -  1.00e+00 1.00e+00h  1
iter    objective    inf_pr   inf_du lg(mu)  ||d||  lg(rg) alpha_du alpha_pr  ls
 140  2.1474906e-02 7.25e-07 6.54e-08 -11.0 2.82e-03    -  1.00e+00 1.00e+00h  1
 141  2.1474925e-02 1.16e-09 2.08e-07 -11.0 1.11e-04    -  1.00e+00 1.00e+00h  1
 142  2.1474925e-02 1.21e-11 1.85e-06 -11.0 5.25e-05    -  1.00e+00 1.00e+00h  1
 143  2.1474925e-02 1.35e-09 7.18e-08 -11.0 9.81e-05    -  1.00e+00 1.00e+00h  1
 144  2.1474925e-02 3.42e-10 2.07e-07 -11.0 6.88e-05    -  1.00e+00 1.00e+00h  1
 145  2.1474925e-02 2.56e-09 4.04e-07 -11.0 1.12e-04    -  1.00e+00 1.00e+00h  1
 146  2.1474925e-02 1.99e-09 4.94e-08 -11.0 5.72e-05    -  1.00e+00 1.00e+00h  1
 147  2.1474925e-02 8.11e-10 2.49e-07 -11.0 9.93e-05    -  1.00e+00 1.00e+00h  1
 148  2.1474817e-02 4.16e-06 5.23e-06 -11.0 6.55e-03    -  1.00e+00 1.00e+00h  1
 149  2.1474814e-02 4.12e-06 8.64e-08 -11.0 6.49e-03    -  1.00e+00 1.00e+00h  1
iter    objective    inf_pr   inf_du lg(mu)  ||d||  lg(rg) alpha_du alpha_pr  ls
 150  2.1474925e-02 2.77e-09 5.54e-07 -11.0 1.12e-04    -  1.00e+00 1.00e+00h  1
 151  2.1474926e-02 0.00e+00 5.28e-06 -11.0 2.26e-04    -  1.00e+00 1.00e+00H  1
 152  2.1474925e-02 2.16e-08 7.60e-08 -11.0 3.51e-04    -  1.00e+00 1.00e+00h  1
 153  2.1474925e-02 5.29e-10 2.78e-07 -11.0 8.41e-05    -  1.00e+00 1.00e+00h  1
 154  2.1474925e-02 3.40e-09 1.51e-06 -11.0 1.42e-04    -  1.00e+00 1.00e+00h  1
 155  2.1474925e-02 4.94e-09 4.71e-07 -11.0 1.78e-04    -  1.00e+00 1.00e+00h  1
 156  2.1474925e-02 2.87e-08 1.90e-06 -11.0 4.01e-04    -  1.00e+00 1.00e+00h  1
 157  2.1474924e-02 3.38e-08 1.54e-07 -11.0 5.27e-04    -  1.00e+00 1.00e+00h  1
 158  2.1474925e-02 1.08e-08 9.20e-07 -11.0 1.86e-04    -  1.00e+00 1.00e+00h  1
 159  2.1474925e-02 2.39e-09 2.52e-06 -11.0 8.23e-05    -  1.00e+00 1.00e+00h  1
iter    objective    inf_pr   inf_du lg(mu)  ||d||  lg(rg) alpha_du alpha_pr  ls
 160  2.1474925e-02 1.56e-08 8.58e-07 -11.0 2.50e-04    -  1.00e+00 1.00e+00h  1
 161  2.1474925e-02 1.03e-08 1.27e-06 -11.0 9.44e-05    -  1.00e+00 1.00e+00h  1
 162  2.1474925e-02 1.23e-09 9.14e-07 -11.0 7.13e-05    -  1.00e+00 1.00e+00h  1
 163  2.1474925e-02 2.52e-09 8.86e-07 -11.0 9.33e-05    -  1.00e+00 1.00e+00h  1
 164  2.1474925e-02 1.54e-09 1.79e-07 -11.0 7.25e-05    -  1.00e+00 1.00e+00h  1
 165  2.1474925e-02 0.00e+00 8.56e-08 -11.0 1.69e-05    -  1.00e+00 1.00e+00h  1
 166  2.1474925e-02 0.00e+00 2.82e-08 -11.0 4.71e-06    -  1.00e+00 1.00e+00h  1
 167  2.1474925e-02 0.00e+00 8.65e-08 -11.0 5.02e-06    -  1.00e+00 1.00e+00h  1
 168  2.1474925e-02 0.00e+00 1.99e-08 -11.0 4.47e-06    -  1.00e+00 1.00e+00h  1
 169  2.1474925e-02 0.00e+00 3.86e-08 -11.0 9.47e-06    -  1.00e+00 1.00e+00h  1
iter    objective    inf_pr   inf_du lg(mu)  ||d||  lg(rg) alpha_du alpha_pr  ls
 170  2.1474925e-02 0.00e+00 3.03e-08 -11.0 3.16e-06    -  1.00e+00 1.00e+00h  1
 171  2.1474925e-02 0.00e+00 2.35e-08 -11.0 5.66e-06    -  1.00e+00 1.00e+00h  1
 172  2.1474925e-02 0.00e+00 8.33e-08 -11.0 5.43e-06    -  1.00e+00 1.00e+00H  1
 173  2.1474925e-02 0.00e+00 3.96e-08 -11.0 2.08e-06    -  1.00e+00 1.00e+00h  1
 174  2.1474925e-02 0.00e+00 1.47e-08 -11.0 3.30e-06    -  1.00e+00 1.00e+00h  1
 175  2.1474925e-02 0.00e+00 1.60e-07 -11.0 1.19e-05    -  1.00e+00 1.00e+00h  1
 176  2.1474925e-02 0.00e+00 1.25e-08 -11.0 3.95e-06    -  1.00e+00 1.00e+00h  1

Number of Iterations....: 176

                                   (scaled)                 (unscaled)
Objective...............:   2.1474925352308855e-02    2.1474925352308855e-02
Dual infeasibility......:   1.2528589117176040e-08    1.2528589117176040e-08
Constraint violation....:   0.0000000000000000e+00    0.0000000000000000e+00
Variable bound violation:   2.3674123106331990e-08    2.3674123106331990e-08
Complementarity.........:   1.0000001026098015e-11    1.0000001026098015e-11
Overall NLP error.......:   1.2528589117176040e-08    1.2528589117176040e-08


Number of objective function evaluations             = 205
Number of objective gradient evaluations             = 177
Number of equality constraint evaluations            = 0
Number of inequality constraint evaluations          = 205
Number of equality constraint Jacobian evaluations   = 0
Number of inequality constraint Jacobian evaluations = 177
Number of Lagrangian Hessian evaluations             = 0
Total seconds in IPOPT                               = 11.204

EXIT: Solved To Acceptable Level.
